\* Problem: Unknown *\

Minimize
 obj: - 9 x_1 + 880 x_2 + 770 x_3 + 660 x_4 + 470 x_5 + 70 x_6 - 230 x_7
 + 871 x_8 + 98 x_9 - x_10 - 111 x_11 - 221 x_12 - 411 x_13 - 811 x_14
 - 1111 x_15 - 10 x_16 - 1103 x_17 - 1101 x_18 - 1301 x_19 - 1501 x_20
 - 1701 x_21 - 2101 x_22 - 2501 x_23 + 7399 x_24 - 1200 x_25 - 1209 x_26
 - 100 x_27 - 300 x_28 - 500 x_29 - 700 x_30 - 1100 x_31 - 1500 x_32
 + 8400 x_33 - 300 x_34 - 500 x_35 - 700 x_36 - 1100 x_37 - 1500 x_38
 + 8400 x_39 - 300 x_40 - 700 x_41 - 800 x_42 - 1000 x_43 + 101 x_44
 - 400 x_45 - 500 x_46 - 700 x_47 + 401 x_48 - 300 x_49 - 400 x_50
 - 600 x_51 + 501 x_52 - 500 x_53 - 600 x_54 - 800 x_55 + 301 x_56
 - 400 x_57 - 800 x_58 - 900 x_59 - 1100 x_60 + x_61 - 120 x_62
 - 230 x_63 - 420 x_64 - 820 x_65 - 1120 x_66 - 19 x_67 - 220 x_68
 - 330 x_69 - 440 x_70 - 630 x_71 - 1030 x_72 - 1330 x_73 - 229 x_74
 - 1120 x_75 - 1230 x_76 - 1340 x_77 - 1530 x_78 - 1930 x_79 - 2230 x_80
 - 1129 x_81 - 400 x_82 - 800 x_83 - 900 x_84 - 1100 x_85 + x_86
 - 400 x_87 - 700 x_88 + 401 x_89 - 120 x_90 - 310 x_91 - 710 x_92
 - 1010 x_93 + 91 x_94 - 500 x_95 - 800 x_96 + 301 x_97 - 300 x_98
 - 600 x_99 + 501 x_100 - 400 x_101 + 701 x_102 - 320 x_103 - 430 x_104
 - 540 x_105 - 730 x_106 - 1130 x_107 - 1430 x_108 - 329 x_109
 - 500 x_110 + 9400 x_111 - 300 x_112 + 9600 x_113 - 300 x_114
 - 700 x_115 - 1100 x_116 + 8800 x_117 + 9800 x_118 - 300 x_119
 - 700 x_120 - 1100 x_121 + 8800 x_122 - 300 x_123 - 500 x_124
 - 900 x_125 - 1300 x_126 + 8600 x_127 - 500 x_128 - 900 x_129
 + 9000 x_130 - 300 x_131 - 700 x_132 + 9200 x_133 - 400 x_134
 + 9500 x_135 + 9900 x_136 - 400 x_137 - 800 x_138 + 9100 x_139

Subject To
 r_1: + x_82 + x_57 + x_40 - ~r_1 = 0
 r_2: + x_84 + x_59 + x_54 + x_50 + x_46 + x_42 - ~r_2 = 0
 r_3: + x_106 + x_91 + x_78 + x_71 + x_64 + x_13 + x_5 - ~r_3 = 0
 r_4: + x_107 + x_98 + x_95 + x_92 + x_87 + x_79 + x_72 + x_65 + x_14
 + x_6 - ~r_4 = 0
 r_5: + x_108 + x_101 + x_99 + x_96 + x_93 + x_88 + x_85 + x_80 + x_73
 + x_66 + x_60 + x_55 + x_51 + x_47 + x_43 + x_15 + x_7 - ~r_5 = 0
 r_6: + x_27 + x_18 - ~r_6 = 0
 r_7: + x_34 + x_28 + x_19 - ~r_7 = 0
 r_8: + x_123 + x_35 + x_29 + x_20 - ~r_8 = 0
 r_9: + x_124 + x_119 + x_114 + x_36 + x_30 + x_21 - ~r_9 = 0
 r_10: + x_137 + x_131 + x_128 + x_125 + x_120 + x_115 + x_37 + x_31
 + x_22 - ~r_10 = 0
 r_11: + x_138 + x_134 + x_132 + x_129 + x_126 + x_121 + x_116 + x_112
 + x_110 + x_38 + x_32 + x_23 - ~r_11 = 0
 r_12: + x_104 + x_76 + x_69 + x_62 + x_11 + x_3 - ~r_12 = 0
 r_13: + x_103 + x_75 + x_68 + x_10 + x_2 - ~r_13 = 0
 r_14: + x_83 + x_58 + x_53 + x_49 + x_45 + x_41 - ~r_14 = 0
 r_15: + x_105 + x_90 + x_77 + x_70 + x_63 + x_12 + x_4 - ~r_15 = 0
 r_16: + x_8 + x_7 + x_6 + x_5 + x_4 + x_3 + x_2 + x_1 >= 0
 r_17: + x_25 >= 0
 r_18: + x_16 + x_15 + x_14 + x_13 + x_12 + x_11 + x_10 + x_9 >= 0
 r_19: + x_26 >= 0
 r_20: + x_24 + x_23 + x_22 + x_21 + x_20 + x_19 + x_18 + x_17 >= 0
 r_21: + x_109 + x_102 + x_100 + x_97 + x_94 + x_89 + x_86 + x_81 + x_74
 + x_67 + x_61 + x_56 + x_52 + x_48 + x_44 + x_16 + x_8 >= 0
 r_22: + x_25 = 369.090642147086
 r_23: + x_26 = 733.053363549295
 r_24: + x_139 + x_138 + x_133 + x_132 + x_130 + x_129 + x_127 + x_126
 + x_122 + x_121 + x_117 + x_116 + x_111 + x_110 + x_39 + x_38 + x_33
 + x_32 + x_24 + x_23 >= 0
 r_25: + x_139 + x_138 + x_135 + x_134 + x_133 + x_132 + x_130 + x_129
 + x_127 + x_126 + x_122 + x_121 + x_117 + x_116 + x_113 + x_112 + x_111
 + x_110 + x_39 + x_38 + x_33 + x_32 + x_24 + x_23 >= 0
 r_26: + x_127 + x_126 + x_125 + x_124 + x_122 + x_121 + x_120 + x_119
 + x_117 + x_116 + x_115 + x_114 + x_39 + x_38 + x_37 + x_36 + x_33
 + x_32 + x_31 + x_30 + x_24 + x_23 + x_22 + x_21 >= 0
 r_27: + x_139 + x_135 + x_133 + x_130 + x_127 + x_122 + x_118 + x_117
 + x_113 + x_111 + x_39 + x_33 + x_24 >= 0
 r_28: + x_127 + x_126 + x_125 + x_124 + x_123 + x_39 + x_38 + x_37
 + x_36 + x_35 + x_33 + x_32 + x_31 + x_30 + x_29 + x_24 + x_23 + x_22
 + x_21 + x_20 >= 0
 r_29: + x_130 + x_129 + x_128 + x_127 + x_126 + x_125 + x_122 + x_121
 + x_120 + x_117 + x_116 + x_115 + x_39 + x_38 + x_37 + x_33 + x_32
 + x_31 + x_24 + x_23 + x_22 >= 0
 r_30: + x_139 + x_138 + x_137 + x_133 + x_132 + x_131 + x_130 + x_129
 + x_128 + x_127 + x_126 + x_125 + x_122 + x_121 + x_120 + x_117 + x_116
 + x_115 + x_39 + x_38 + x_37 + x_33 + x_32 + x_31 + x_24 + x_23 + x_22
 >= 0
 r_31: + x_139 + x_138 + x_135 + x_134 + x_133 + x_132 + x_130 + x_129
 + x_127 + x_126 + x_122 + x_121 + x_117 + x_116 + x_111 + x_110 + x_39
 + x_38 + x_33 + x_32 + x_24 + x_23 >= 0
 r_32: + x_139 + x_136 + x_135 + x_133 + x_130 + x_127 + x_122 + x_118
 + x_117 + x_113 + x_111 + x_39 + x_33 + x_24 >= 0
 r_33: + x_139 + x_138 + x_137 + x_130 + x_129 + x_128 + x_127 + x_126
 + x_125 + x_122 + x_121 + x_120 + x_117 + x_116 + x_115 + x_39 + x_38
 + x_37 + x_33 + x_32 + x_31 + x_24 + x_23 + x_22 >= 0
 r_34: + x_33 + x_32 + x_31 + x_30 + x_29 + x_28 + x_27 = 35019.648
 r_35: + x_39 + x_38 + x_37 + x_36 + x_35 + x_34 = 28927.2384
 r_36: + x_1 = 0
 r_37: + x_9 = 0
 r_38: + x_17 - ~r_38 = 0
 r_39: + x_44 + x_43 + x_42 + x_41 + x_40 = 10096.7904
 r_40: + x_48 + x_47 + x_46 + x_45 = 25241.9328
 r_41: + x_52 + x_51 + x_50 + x_49 = 25241.9328
 r_42: + x_56 + x_55 + x_54 + x_53 = 40387.0752
 r_43: + x_61 + x_60 + x_59 + x_58 + x_57 = 29069.1936
 r_44: + x_67 + x_66 + x_65 + x_64 + x_63 + x_62 = 59016.1248
 r_45: + x_74 + x_73 + x_72 + x_71 + x_70 + x_69 + x_68 = 5544.09792
 r_46: + x_81 + x_80 + x_79 + x_78 + x_77 + x_76 + x_75 = 14694.8256
 r_47: + x_86 + x_85 + x_84 + x_83 + x_82 = 12397.1904
 r_48: + x_89 + x_88 + x_87 = 3928.80672
 r_49: + x_94 + x_93 + x_92 + x_91 + x_90 = 57735.1584
 r_50: + x_97 + x_96 + x_95 = 23094.1152
 r_51: + x_100 + x_99 + x_98 = 23094.1152
 r_52: + x_102 + x_101 = 11547.0144
 r_53: + x_109 + x_108 + x_107 + x_106 + x_105 + x_104 + x_103
 = 43156.4544
 r_54: + x_111 + x_110 = 3089.49984
 r_55: + x_113 + x_112 = 3089.49984
 r_56: + x_117 + x_116 + x_115 + x_114 = 5178.19392
 r_57: + x_118 = 3037.23648
 r_58: + x_122 + x_121 + x_120 + x_119 = 9969.4368
 r_59: + x_127 + x_126 + x_125 + x_124 + x_123 = 12483.8496
 r_60: + x_130 + x_129 + x_128 = 4769.38368
 r_61: + x_133 + x_132 + x_131 = 1709.09568
 r_62: + x_135 + x_134 = 3391.83936
 r_63: + x_136 = 2279.62944
 r_64: + x_139 + x_138 + x_137 = 3217.74336
 r_65: + x_109 + x_108 + x_107 + x_106 + x_105 + x_104 + x_103 + x_74
 + x_73 + x_72 + x_71 + x_70 + x_69 + x_68 + x_8 + x_7 + x_6 + x_5 + x_4
 + x_3 + x_2 >= 0
 r_66: + x_109 + x_108 + x_107 + x_106 + x_105 + x_104 + x_103 + x_81
 + x_80 + x_79 + x_78 + x_77 + x_76 + x_75 + x_74 + x_73 + x_72 + x_71
 + x_70 + x_69 + x_68 + x_16 + x_15 + x_14 + x_13 + x_12 + x_11 + x_10
 + x_8 + x_7 + x_6 + x_5 + x_4 + x_3 + x_2 >= 0
 r_67: + x_109 + x_108 + x_102 + x_101 + x_100 + x_99 + x_97 + x_96
 + x_94 + x_93 + x_89 + x_88 + x_86 + x_85 + x_81 + x_80 + x_74 + x_73
 + x_67 + x_66 + x_61 + x_60 + x_56 + x_55 + x_52 + x_51 + x_48 + x_47
 + x_44 + x_43 + x_16 + x_15 + x_8 + x_7 >= 0
 r_68: + x_139 + x_136 + x_135 + x_133 + x_130 + x_127 + x_122 + x_118
 + x_117 + x_113 + x_111 + x_39 + x_33 + x_24 >= 0
 r_69: + x_39 + x_38 + x_37 + x_36 + x_35 + x_34 + x_33 + x_32 + x_31
 + x_30 + x_29 + x_28 + x_24 + x_23 + x_22 + x_21 + x_20 + x_19 >= 0
 r_70: + x_86 + x_85 + x_84 + x_83 + x_82 + x_61 + x_60 + x_59 + x_58
 + x_57 + x_44 + x_43 + x_42 + x_41 + x_40 >= 0
 r_71: + x_86 + x_85 + x_84 + x_83 + x_61 + x_60 + x_59 + x_58 + x_56
 + x_55 + x_54 + x_53 + x_48 + x_47 + x_46 + x_45 + x_44 + x_43 + x_42
 + x_41 >= 0
 r_72: + x_86 + x_85 + x_84 + x_83 + x_61 + x_60 + x_59 + x_58 + x_56
 + x_55 + x_54 + x_53 + x_52 + x_51 + x_50 + x_49 + x_48 + x_47 + x_46
 + x_45 + x_44 + x_43 + x_42 + x_41 >= 0
 r_73: + x_86 + x_85 + x_84 + x_83 + x_61 + x_60 + x_59 + x_58 + x_56
 + x_55 + x_54 + x_53 + x_44 + x_43 + x_42 + x_41 >= 0
 r_74: + x_86 + x_85 + x_84 + x_83 + x_82 + x_61 + x_60 + x_59 + x_58
 + x_57 >= 0
 r_75: + x_109 + x_108 + x_107 + x_106 + x_105 + x_104 + x_81 + x_80
 + x_79 + x_78 + x_77 + x_76 + x_74 + x_73 + x_72 + x_71 + x_70 + x_69
 + x_67 + x_66 + x_65 + x_64 + x_63 + x_62 + x_16 + x_15 + x_14 + x_13
 + x_12 + x_11 + x_8 + x_7 + x_6 + x_5 + x_4 + x_3 >= 0
 r_76: + x_109 + x_108 + x_107 + x_106 + x_105 + x_104 + x_103 >= 0
 r_77: + x_109 + x_108 + x_107 + x_97 + x_96 + x_95 + x_94 + x_93 + x_92
 + x_89 + x_88 + x_87 + x_81 + x_80 + x_79 + x_74 + x_73 + x_72 + x_67
 + x_66 + x_65 + x_16 + x_15 + x_14 + x_8 + x_7 + x_6 >= 0
 r_78: + x_109 + x_108 + x_107 + x_106 + x_105 + x_94 + x_93 + x_92
 + x_91 + x_90 + x_81 + x_80 + x_79 + x_78 + x_77 + x_74 + x_73 + x_72
 + x_71 + x_70 + x_67 + x_66 + x_65 + x_64 + x_63 + x_16 + x_15 + x_14
 + x_13 + x_12 + x_8 + x_7 + x_6 + x_5 + x_4 >= 0
 r_79: + x_109 + x_108 + x_107 + x_97 + x_96 + x_95 + x_94 + x_93 + x_92
 + x_81 + x_80 + x_79 + x_74 + x_73 + x_72 + x_67 + x_66 + x_65 + x_16
 + x_15 + x_14 + x_8 + x_7 + x_6 >= 0
 r_80: + x_109 + x_108 + x_107 + x_100 + x_99 + x_98 + x_97 + x_96
 + x_95 + x_94 + x_93 + x_92 + x_89 + x_88 + x_87 + x_81 + x_80 + x_79
 + x_74 + x_73 + x_72 + x_67 + x_66 + x_65 + x_16 + x_15 + x_14 + x_8
 + x_7 + x_6 >= 0
 r_81: + x_109 + x_108 + x_102 + x_101 + x_100 + x_99 + x_97 + x_96
 + x_94 + x_93 + x_89 + x_88 + x_81 + x_80 + x_74 + x_73 + x_67 + x_66
 + x_16 + x_15 + x_8 + x_7 >= 0
 r_82: + x_86 + x_85 + x_84 + x_83 + x_82 + x_61 + x_60 + x_59 + x_58
 + x_57 + x_44 + x_43 + x_42 + x_41 + x_40 >= 0
 r_83: + x_86 + x_85 + x_84 + x_61 + x_60 + x_59 + x_56 + x_55 + x_54
 + x_52 + x_51 + x_50 + x_48 + x_47 + x_46 + x_44 + x_43 + x_42 >= 0
 r_84: + x_109 + x_108 + x_107 + x_106 + x_94 + x_93 + x_92 + x_91
 + x_81 + x_80 + x_79 + x_78 + x_74 + x_73 + x_72 + x_71 + x_67 + x_66
 + x_65 + x_64 + x_16 + x_15 + x_14 + x_13 + x_8 + x_7 + x_6 + x_5 >= 0
 r_85: + x_109 + x_108 + x_107 + x_100 + x_99 + x_98 + x_97 + x_96
 + x_95 + x_94 + x_93 + x_92 + x_89 + x_88 + x_87 + x_81 + x_80 + x_79
 + x_74 + x_73 + x_72 + x_67 + x_66 + x_65 + x_16 + x_15 + x_14 + x_8
 + x_7 + x_6 >= 0
 r_86: + x_109 + x_108 + x_102 + x_101 + x_100 + x_99 + x_97 + x_96
 + x_94 + x_93 + x_89 + x_88 + x_86 + x_85 + x_81 + x_80 + x_74 + x_73
 + x_67 + x_66 + x_61 + x_60 + x_56 + x_55 + x_52 + x_51 + x_48 + x_47
 + x_44 + x_43 + x_16 + x_15 + x_8 + x_7 >= 0
 r_87: + x_33 + x_32 + x_31 + x_30 + x_29 + x_28 + x_27 + x_24 + x_23
 + x_22 + x_21 + x_20 + x_19 + x_18 >= 0
 r_88: + x_39 + x_38 + x_37 + x_36 + x_35 + x_34 + x_33 + x_32 + x_31
 + x_30 + x_29 + x_28 + x_24 + x_23 + x_22 + x_21 + x_20 + x_19 >= 0
 r_89: + x_127 + x_126 + x_125 + x_124 + x_123 + x_39 + x_38 + x_37
 + x_36 + x_35 + x_33 + x_32 + x_31 + x_30 + x_29 + x_24 + x_23 + x_22
 + x_21 + x_20 >= 0
 r_90: + x_127 + x_126 + x_125 + x_124 + x_122 + x_121 + x_120 + x_119
 + x_117 + x_116 + x_115 + x_114 + x_39 + x_38 + x_37 + x_36 + x_33
 + x_32 + x_31 + x_30 + x_24 + x_23 + x_22 + x_21 >= 0
 r_91: + x_139 + x_138 + x_137 + x_133 + x_132 + x_131 + x_130 + x_129
 + x_128 + x_127 + x_126 + x_125 + x_122 + x_121 + x_120 + x_117 + x_116
 + x_115 + x_39 + x_38 + x_37 + x_33 + x_32 + x_31 + x_24 + x_23 + x_22
 >= 0
 r_92: + x_139 + x_138 + x_135 + x_134 + x_133 + x_132 + x_130 + x_129
 + x_127 + x_126 + x_122 + x_121 + x_117 + x_116 + x_113 + x_112 + x_111
 + x_110 + x_39 + x_38 + x_33 + x_32 + x_24 + x_23 >= 0
 r_93: + x_109 + x_108 + x_107 + x_106 + x_105 + x_104 + x_81 + x_80
 + x_79 + x_78 + x_77 + x_76 + x_74 + x_73 + x_72 + x_71 + x_70 + x_69
 + x_67 + x_66 + x_65 + x_64 + x_63 + x_62 + x_16 + x_15 + x_14 + x_13
 + x_12 + x_11 + x_8 + x_7 + x_6 + x_5 + x_4 + x_3 >= 0
 r_94: + x_109 + x_108 + x_107 + x_106 + x_105 + x_104 + x_103 + x_81
 + x_80 + x_79 + x_78 + x_77 + x_76 + x_75 + x_74 + x_73 + x_72 + x_71
 + x_70 + x_69 + x_68 + x_16 + x_15 + x_14 + x_13 + x_12 + x_11 + x_10
 + x_8 + x_7 + x_6 + x_5 + x_4 + x_3 + x_2 >= 0
 r_95: + x_109 + x_108 + x_107 + x_106 + x_105 + x_94 + x_93 + x_92
 + x_91 + x_90 + x_81 + x_80 + x_79 + x_78 + x_77 + x_74 + x_73 + x_72
 + x_71 + x_70 + x_67 + x_66 + x_65 + x_64 + x_63 + x_16 + x_15 + x_14
 + x_13 + x_12 + x_8 + x_7 + x_6 + x_5 + x_4 >= 0
 r_96: + x_86 + x_85 + x_84 + x_83 + x_61 + x_60 + x_59 + x_58 + x_56
 + x_55 + x_54 + x_53 + x_52 + x_51 + x_50 + x_49 + x_48 + x_47 + x_46
 + x_45 + x_44 + x_43 + x_42 + x_41 >= 0
 r_97: + x_8 + x_7 + x_6 + x_5 + x_4 + x_3 + x_2 - ~r_97 = 0
 r_98: + x_16 + x_15 + x_14 + x_13 + x_12 + x_11 + x_10 - ~r_98 = 0
 r_99: + x_33 + x_32 + x_31 + x_30 + x_29 + x_28 + x_27 + x_24 + x_23
 + x_22 + x_21 + x_20 + x_19 + x_18 - ~r_99 = 0
 r_100: - x_8 - x_7 - x_6 - x_5 - x_4 - x_3 - x_2 - x_1 + x_25 - ~r_100
 = -112903.225806452
 r_101: - x_16 - x_15 - x_14 - x_13 - x_12 - x_11 - x_10 - x_9 + x_26
 - ~r_101 = -225806.451612903
 r_102: - x_24 - x_23 - x_22 - x_21 - x_20 - x_19 - x_18 - x_17 + x_109
 + x_102 + x_100 + x_97 + x_94 + x_89 + x_86 + x_81 + x_74 + x_67 + x_61
 + x_56 + x_52 + x_48 + x_44 + x_16 + x_8 - ~r_102 = -3541.26699388538

Bounds
 0 <= ~r_1 <= 25693.8048
 0 <= ~r_2 <= 14003.7984
 0 <= ~r_3 <= 58680.72
 0 <= ~r_4 <= 8086.06368
 0 <= ~r_5 <= 5410.35072
 0 <= ~r_6 <= 20763.9936
 0 <= ~r_7 <= 119118.816
 0 <= ~r_8 <= 175215.744
 0 <= ~r_9 <= 13482.6336
 0 <= ~r_10 <= 21429.6192
 0 <= ~r_11 <= 51563.6928
 0 <= ~r_12 <= 2474.72064
 0 <= ~r_13 <= 3928.1328
 0 <= ~r_14 <= 114.370272
 0 <= ~r_15 <= 13.8630528
 0 <= ~r_38 <= 9.75505837632728
 0 <= ~r_97 <= 100000
 0 <= ~r_98 <= 500
 0 <= ~r_99 <= 13200000
 0 <= ~r_100 <= 112903.225806452
 0 <= ~r_101 <= 225806.451612903
 0 <= ~r_102 <= 5480000

End
